n = 6;
nb_couleurs = 8;
nb_couleurs2 = 9;
nb_formes = 5;
nb_variantes = 5;
gris = 1;
t = [|1,307,992,1,
|1,307,732,307,
|1,992,850,307,
|1,732,850,992,
|1,647,637,732,
|1,1,1438,647,
|992,537,1250,1,
|732,992,992,537,
|850,757,992,992,
|850,1498,647,757,
|637,647,992,1498,
|1438,1,307,647,
|1250,1438,1438,1,
|992,647,1250,1438,
|992,1692,992,647,
|647,1749,1472,1692,
|992,647,339,1749,
|307,1,1498,647,
|1438,1250,339,1,
|1250,339,837,1250,
|992,1472,1472,339,
|1472,647,650,1472,
|339,812,1250,647,
|1498,1,647,812,
|339,1498,732,1,
|837,850,757,1498,
|1472,1438,637,850,
|650,647,1749,1438,
|1250,1749,1692,647,
|647,1,537,1749,
|732,647,1,1,
|757,1250,1,647,
|637,537,1,1250,
|1749,1250,1,537,
|1692,1749,1,1250,
|537,1,1,1749,
|];